
Gurobi 10.0.1 (win64) logging started Tue Aug 29 02:53:11 2023

Set parameter LogFile to value "results//log/URT_08_deadline.log"
Gurobi Optimizer version 10.0.1 build v10.0.1rc0 (win64)

CPU model: AMD Ryzen 7 3700X 8-Core Processor, instruction set [SSE2|AVX|AVX2]
Thread count: 8 physical cores, 16 logical processors, using up to 16 threads

Optimize a model with 177 rows, 124 columns and 652 nonzeros
Model fingerprint: 0x29b71763
Model has 1 quadratic constraint
Variable types: 18 continuous, 106 integer (105 binary)
Coefficient statistics:
  Matrix range     [1e+00, 1e+06]
  QMatrix range    [1e+00, 1e+00]
  QLMatrix range   [1e+00, 7e+00]
  Objective range  [1e+00, 1e+00]
  Bounds range     [1e+00, 1e+00]
  RHS range        [1e+00, 3e+06]
Presolve removed 37 rows and 51 columns
Presolve time: 0.00s
Presolved: 147 rows, 79 columns, 625 nonzeros
Variable types: 24 continuous, 55 integer (54 binary)

Root relaxation: objective 0.000000e+00, 24 iterations, 0.00 seconds (0.00 work units)

    Nodes    |    Current Node    |     Objective Bounds      |     Work
 Expl Unexpl |  Obj  Depth IntInf | Incumbent    BestBd   Gap | It/Node Time

     0     0    0.00000    0    9          -    0.00000      -     -    0s
H    0     0                      52.0000000    0.00000   100%     -    0s
H    0     0                      50.0000000    0.00000   100%     -    0s
H    0     0                      49.0000000    0.00000   100%     -    0s
     0     0    0.00000    0    9   49.00000    0.00000   100%     -    0s
H    0     0                      35.0000000    0.00000   100%     -    0s
     0     0    0.00000    0    9   35.00000    0.00000   100%     -    0s
H    0     0                      34.0000000    0.00000   100%     -    0s
     0     0    0.00000    0    1   34.00000    0.00000   100%     -    0s
H    0     0                      33.0000000    0.00000   100%     -    0s
H    0     0                      32.0000000    0.00000   100%     -    0s
     0     0    0.00000    0    2   32.00000    0.00000   100%     -    0s
     0     0    0.00000    0    3   32.00000    0.00000   100%     -    0s
     0     0    0.00000    0    6   32.00000    0.00000   100%     -    0s
H    0     0                      30.0000000    6.99973  76.7%     -    0s
     0     0    6.99973    0    7   30.00000    6.99973  76.7%     -    0s
     0     0    7.00000    0    6   30.00000    7.00000  76.7%     -    0s
     0     0    7.31494    0   13   30.00000    7.31494  75.6%     -    0s
     0     0    7.33098    0   15   30.00000    7.33098  75.6%     -    0s
     0     0    8.31119    0   16   30.00000    8.31119  72.3%     -    0s
H    0     0                      27.0000000    8.31119  69.2%     -    0s
     0     0    8.31119    0   14   27.00000    8.31119  69.2%     -    0s
     0     0    8.31119    0   14   27.00000    8.31119  69.2%     -    0s
     0     0    8.32863    0   15   27.00000    8.32863  69.2%     -    0s
     0     0    8.50376    0   13   27.00000    8.50376  68.5%     -    0s
     0     0    8.54235    0   16   27.00000    8.54235  68.4%     -    0s
     0     0    8.83064    0   21   27.00000    8.83064  67.3%     -    0s
     0     0    8.83064    0   18   27.00000    8.83064  67.3%     -    0s
     0     2    8.83064    0   17   27.00000    8.83064  67.3%     -    0s

Cutting planes:
  Learned: 31
  Cover: 10
  Implied bound: 4
  MIR: 24
  Flow cover: 17
  RLT: 4
  Relax-and-lift: 1

Explored 215 nodes (1837 simplex iterations) in 0.21 seconds (0.04 work units)
Thread count was 16 (of 16 available processors)

Solution count 10: 27 27 30 ... 52

Optimal solution found (tolerance 1.00e-04)
Best objective 2.700000000000e+01, best bound 2.700000000000e+01, gap 0.0000%
Warning: constraint name "precedence between 0,1 to 0,0 if x_[j,l,h,z,i]=1" has a space
Warning: constraint name "precedence between 0,1 to 0,0 if x_[j,l,h,z,i]=1" has a space
Warning: default constraint names used to write mps file
